8
 9999   22   40   15   35   20   30   42
   22 9999    7   14   15   20    8   16
   40    7 9999   19   14   22    5    8
   15   14   19 9999   12   14    9   18
   35   15   14   12 9999    8    7    6
   20   20   22   14    8 9999   16   20
   30    8    5    9    7   16 9999    7
   42   16    8   18    6   20    7 9999
